c randN150_K5_R0.2_L30_26.cnf
p cnf 150 30
64 110 15 150 57 0
68 -50 113 58 124 0
-64 128 -120 -73 58 0
98 -124 -91 109 121 0
-32 -124 47 26 -69 0
66 136 9 11 -51 0
-63 3 -23 48 81 0
128 -64 75 58 -131 0
32 -91 114 25 95 0
-89 -147 -108 -67 -130 0
1 -93 -114 54 -6 0
-29 -89 141 21 91 0
106 143 -103 58 -35 0
-85 -48 89 -6 -100 0
-123 74 -118 80 93 0
100 134 -139 -102 -129 0
-116 -46 118 -103 93 0
40 -88 -79 149 58 0
43 116 53 -107 -6 0
-125 -57 -23 -72 -66 0
72 -141 -75 -9 -101 0
64 -23 -149 13 118 0
-96 -17 113 53 27 0
130 133 -26 -91 -50 0
-32 101 -123 7 -100 0
-80 82 -43 57 123 0
-64 -31 -57 -101 -99 0
-30 7 -118 -145 -67 0
71 -120 -118 -34 30 0
12 -147 -17 15 -108 0
